; ./prepared/seahorn/./sv_comp_flat_small/array-examples/standard_running_false-unreach-call.c.flat_000.smt2
(set-logic HORN)


(declare-fun |main_1| ( Int Int Int Int Int Int ) Bool)

(assert
  (forall ( (A Int) (B Int) (C Int) (D Int) (E Int) (v_5 Int) ) 
    (=>
      (and
        (and true (= 0 v_5))
      )
      (main_1 v_5 A B C D E)
    )
  )
)
(assert
  (forall ( (A Int) (B Int) (C Int) (D Int) (E Int) (F Int) (G Int) (H Int) (I Int) (J Bool) (K Int) (L Bool) (M Bool) (N Int) (v_14 Int) (v_15 Int) ) 
    (=>
      (and
        (main_1 v_14 E F G H I)
        (and (= 0 v_14)
     (= B A)
     (or (= D N) (not M) (not J))
     (or (= N 0) (not M) (not J))
     (or (not L) (and J M))
     (= L true)
     (= C K)
     (= 1 v_15))
      )
      (main_1 v_15 K F G A D)
    )
  )
)
(assert
  (forall ( (A Int) (B Int) (C Bool) (D Int) (E Int) (F Bool) (G Int) (H Int) (I Int) (J Int) (K Int) (L Int) (M Bool) (N Int) (O Int) (P Bool) (Q Bool) (v_17 Int) (v_18 Int) ) 
    (=>
      (and
        (main_1 v_17 H I J K L)
        (and (= 1 v_17)
     (not (= (<= B (- 1)) C))
     (= A (+ K (* 4 L)))
     (= E (ite C 1 0))
     (= D (+ H (* 4 L)))
     (= O (+ 1 L))
     (or (= G N) (not M) (not Q))
     (or (= N O) (not M) (not Q))
     (or F (not M) (not Q))
     (or (not P) (and M Q))
     (= P true)
     (not (= (<= 100000 O) F))
     (= 1 v_18))
      )
      (main_1 v_18 H I J K G)
    )
  )
)
(assert
  (forall ( (A Int) (B Int) (C Int) (D Int) (E Bool) (F Int) (G Int) (H Bool) (I Int) (J Int) (K Int) (L Int) (M Int) (N Bool) (O Int) (P Bool) (Q Bool) (R Bool) (S Bool) (T Int) (U Int) (v_21 Int) (v_22 Int) ) 
    (=>
      (and
        (main_1 v_21 I J K L M)
        (and (= 1 v_21)
     (not (= (<= D (- 1)) E))
     (= G (ite E 1 0))
     (= C (+ L (* 4 M)))
     (= F (+ I (* 4 M)))
     (= O (+ 1 M))
     (or (not S) (not P) (= B U))
     (or (not S) (not P) (= A T))
     (or (not S) (not P) (= U 0))
     (or (not S) (not P) (= T 1))
     (or (not H) (not Q) (not N))
     (or (not R) (and S P))
     (or (not P) (and Q N))
     (= R true)
     (not (= (<= 100000 O) H))
     (= 2 v_22))
      )
      (main_1 v_22 I B A L M)
    )
  )
)
(assert
  (forall ( (A Int) (B Int) (C Bool) (D Bool) (E Int) (F Int) (G Int) (H Int) (I Int) (J Int) (K Int) (L Bool) (M Int) (N Int) (O Int) (P Int) (Q Bool) (R Bool) (v_18 Int) (v_19 Int) ) 
    (=>
      (and
        (main_1 v_18 G H I J K)
        (and (= 2 v_18)
     (= C (= B 0))
     (= A (+ G (* 4 H)))
     (= P (+ 1 H))
     (= O (ite C 0 I))
     (or (not R) (not L) (= M O))
     (or (not R) (not L) (= F N))
     (or (not R) (not L) (= E M))
     (or (not R) (not L) (= N P))
     (or D (not R) (not L))
     (or (not Q) (and R L))
     (= Q true)
     (not (= (<= 100000 P) D))
     (= 2 v_19))
      )
      (main_1 v_19 G F E J K)
    )
  )
)
(assert
  (forall ( (A Bool) (B Int) (C Int) (D Bool) (E Bool) (F Int) (G Int) (H Int) (I Int) (J Int) (K Int) (L Bool) (M Int) (N Int) (O Bool) (P Bool) (Q Int) (R Bool) (S Bool) (v_19 Int) (v_20 Int) ) 
    (=>
      (and
        (main_1 v_19 G H I J K)
        (and (= 2 v_19)
     (= D (= C 0))
     (= B (+ G (* 4 H)))
     (= N (+ 1 H))
     (= M (ite D 0 I))
     (or (= F Q) (not P) (not L))
     (or (= Q M) (not P) (not L))
     (or (not E) (not P) (not L))
     (or (not R) (and O S))
     (or (not O) (= A (= F 0)))
     (or (not O) (and L P))
     (or (not O) A)
     (= R true)
     (not (= (<= 100000 N) E))
     (= 3 v_20))
      )
      (main_1 v_20 G H I J K)
    )
  )
)
(assert
  (forall ( (A Int) (B Int) (C Int) (D Int) (E Int) (v_5 Int) ) 
    (=>
      (and
        (main_1 v_5 A B C D E)
        (= 3 v_5)
      )
      false
    )
  )
)

(check-sat)
(exit)
